circuits = [|
    3,22 |
    4,19 |
    3,14 |
    3,13 |
    3,12 |
    3,11 |
    3,10 |
    3,9 |
    3,8 |
    3,7 |
    6,4 |
    3,6 |
    3,5 |
    3,4 |
    4,3 |
    3,3 |
|];
n = 16;
width = 22;